(set-info :source |printed by MathSAT|)
(declare-fun call_mesi.ite16 () Int)
(declare-fun call_mesi.ite27.next () Int)
(declare-fun _OK_.next () Bool)
(declare-fun call_mesi.ite14 () Int)
(declare-fun call_mesi.ite7 () Int)
(declare-fun call_Sofar.flby () Bool)
(declare-fun call_mesi.ite27 () Int)
(declare-fun call_mesi.ite20.next () Int)
(declare-fun call_mesi.ite32 () Int)
(declare-fun call_mesi.ite6 () Int)
(declare-fun call_mesi.ite32.next () Int)
(declare-fun call_mesi.ite21 () Int)
(declare-fun call_mesi.ite () Int)
(declare-fun call_mesi.flby () Int)
(declare-fun call_mesi.garde_me2.next () Bool)
(declare-fun invalid_me.next () Int)
(declare-fun call_mesi.ite31.next () Int)
(declare-fun call_mesi.ite6.next () Int)
(declare-fun call_mesi.ite29 () Int)
(declare-fun call_mesi.ite15.next () Int)
(declare-fun call_mesi.flby2.next () Int)
(declare-fun call_mesi.ite13.next () Int)
(declare-fun call_mesi.ite30 () Int)
(declare-fun call_mesi.ite26 () Int)
(declare-fun flby.next () Bool)
(declare-fun call_mesi.ite2.next () Int)
(declare-fun call_mesi.ite3 () Int)
(declare-fun call_mesi.shared_me () Int)
(declare-fun call_mesi.ite23.next () Int)
(declare-fun invalid_me () Int)
(declare-fun call_mesi.ite23 () Int)
(declare-fun param_etat_me4 () Bool)
(declare-fun exclusive_me () Int)
(declare-fun modified_me () Int)
(declare-fun call_mesi.ite18 () Int)
(declare-fun call_mesi.ite5.next () Int)
(declare-fun call_mesi.ite15 () Int)
(declare-fun call_mesi.flby4 () Int)
(declare-fun call_mesi.invalid_me.next () Int)
(declare-fun call_mesi.ite24.next () Int)
(declare-fun param_etat_me1 () Bool)
(declare-fun call_mesi.ite12.next () Int)
(declare-fun modified_me.next () Int)
(declare-fun call_mesi.exclusive_me.next () Int)
(declare-fun call_mesi.ite13 () Int)
(declare-fun env.next () Bool)
(declare-fun call_mesi.ite22 () Int)
(declare-fun param_etat_me2 () Bool)
(declare-fun call_mesi.ite8 () Int)
(declare-fun call_mesi.ite9 () Int)
(declare-fun call_mesi.ite17.next () Int)
(declare-fun param_etat_me3 () Bool)
(declare-fun call_mesi.ite10 () Int)
(declare-fun call_mesi.ite5 () Int)
(declare-fun call_mesi.exclusive_me () Int)
(declare-fun call_excludes4.excludes () Bool)
(declare-fun param_etat_me4.next () Bool)
(declare-fun call_mesi.modified_me () Int)
(declare-fun call_mesi.modified_me.next () Int)
(declare-fun flby () Bool)
(declare-fun call_mesi.ite25.next () Int)
(declare-fun call_mesi.ite7.next () Int)
(declare-fun call_mesi.ite19.next () Int)
(declare-fun call_mesi.invalid_me () Int)
(declare-fun call_mesi.flby3 () Int)
(declare-fun call_mesi.ite10.next () Int)
(declare-fun param_etat_me2.next () Bool)
(declare-fun call_mesi.ite31 () Int)
(declare-fun shared_me () Int)
(declare-fun call_mesi.ite8.next () Int)
(declare-fun call_mesi.garde_me3.next () Bool)
(declare-fun call_mesi.ite16.next () Int)
(declare-fun call_mesi.ite30.next () Int)
(declare-fun call_mesi.flby.next () Int)
(declare-fun call_mesi.flby4.next () Int)
(declare-fun call_mesi.ite11.next () Int)
(declare-fun call_mesi.ite24 () Int)
(declare-fun call_mesi.ite29.next () Int)
(declare-fun call_mesi.ite19 () Int)
(declare-fun call_mesi.ite3.next () Int)
(declare-fun call_mesi.ite28.next () Int)
(declare-fun call_Sofar.flby.next () Bool)
(declare-fun env () Bool)
(declare-fun call_mesi.ite2 () Int)
(declare-fun call_mesi.ite22.next () Int)
(declare-fun call_mesi.ite11 () Int)
(declare-fun _OK_ () Bool)
(declare-fun call_mesi.garde_me4.next () Bool)
(declare-fun call_mesi.ite21.next () Int)
(declare-fun param_etat_me3.next () Bool)
(declare-fun call_mesi.flby2 () Int)
(declare-fun call_mesi.ite.next () Int)
(declare-fun call_Sofar.Sofar.next () Bool)
(declare-fun call_mesi.ite25 () Int)
(declare-fun exclusive_me.next () Int)
(declare-fun call_mesi.shared_me.next () Int)
(declare-fun call_excludes4.excludes.next () Bool)
(declare-fun call_mesi.ite4.next () Int)
(declare-fun call_mesi.ite17 () Int)
(declare-fun call_mesi.ite9.next () Int)
(declare-fun call_mesi.flby3.next () Int)
(declare-fun call_mesi.garde_me1.next () Bool)
(declare-fun call_mesi.ite18.next () Int)
(declare-fun call_mesi.ite26.next () Int)
(declare-fun call_Sofar.Sofar () Bool)
(declare-fun param_etat_me1.next () Bool)
(declare-fun call_mesi.ite14.next () Int)
(declare-fun shared_me.next () Int)
(define-fun .def_1185 () Bool (= call_Sofar.flby.next call_Sofar.Sofar.next))
(define-fun .def_1180 () Bool (and param_etat_me4.next param_etat_me3.next))
(define-fun .def_1175 () Bool (and param_etat_me1.next param_etat_me2.next))
(define-fun .def_1174 () Bool (and param_etat_me3.next param_etat_me1.next))
(define-fun .def_1176 () Bool (or .def_1174 .def_1175))
(define-fun .def_1173 () Bool (and param_etat_me4.next param_etat_me1.next))
(define-fun .def_1177 () Bool (or .def_1173 .def_1176))
(define-fun .def_1172 () Bool (and param_etat_me3.next param_etat_me2.next))
(define-fun .def_1178 () Bool (or .def_1172 .def_1177))
(define-fun .def_1171 () Bool (and param_etat_me4.next param_etat_me2.next))
(define-fun .def_1179 () Bool (or .def_1171 .def_1178))
(define-fun .def_1181 () Bool (or .def_1179 .def_1180))
(define-fun .def_1182 () Bool (not .def_1181))
(define-fun .def_1183 () Bool (= call_excludes4.excludes.next .def_1182))
(define-fun .def_1169 () Bool (= call_mesi.flby4.next call_mesi.invalid_me.next))
(define-fun .def_1167 () Bool (= call_mesi.flby3.next call_mesi.shared_me.next))
(define-fun .def_1165 () Bool (= call_mesi.flby2.next call_mesi.exclusive_me.next))
(define-fun .def_1163 () Bool (= call_mesi.flby.next call_mesi.modified_me.next))
(define-fun .def_1159 () Bool (= call_mesi.ite30.next call_mesi.ite31.next))
(define-fun .def_1160 () Bool (or param_etat_me2.next .def_1159))
(define-fun .def_1156 () Bool (= call_mesi.ite26.next call_mesi.ite31.next))
(define-fun .def_1141 () Bool (not param_etat_me2.next))
(define-fun .def_1157 () Bool (or .def_1141 .def_1156))
(define-fun .def_1153 () Bool (= call_mesi.ite22.next call_mesi.ite23.next))
(define-fun .def_1154 () Bool (or param_etat_me2.next .def_1153))
(define-fun .def_1150 () Bool (= call_mesi.ite18.next call_mesi.ite23.next))
(define-fun .def_1151 () Bool (or .def_1141 .def_1150))
(define-fun .def_1147 () Bool (= call_mesi.ite14.next call_mesi.ite15.next))
(define-fun .def_1148 () Bool (or param_etat_me2.next .def_1147))
(define-fun .def_1144 () Bool (= call_mesi.ite10.next call_mesi.ite15.next))
(define-fun .def_1145 () Bool (or .def_1141 .def_1144))
(define-fun .def_1140 () Bool (= call_mesi.ite2.next call_mesi.ite7.next))
(define-fun .def_1142 () Bool (or .def_1140 .def_1141))
(define-fun .def_1137 () Bool (= call_mesi.ite6.next call_mesi.ite7.next))
(define-fun .def_1139 () Bool (or .def_1137 param_etat_me2.next))
(define-fun .def_1143 () Bool (and .def_1139 .def_1142))
(define-fun .def_1146 () Bool (and .def_1143 .def_1145))
(define-fun .def_1149 () Bool (and .def_1146 .def_1148))
(define-fun .def_1152 () Bool (and .def_1149 .def_1151))
(define-fun .def_1155 () Bool (and .def_1152 .def_1154))
(define-fun .def_1158 () Bool (and .def_1155 .def_1157))
(define-fun .def_1161 () Bool (and .def_1158 .def_1160))
(define-fun .def_1133 () Bool (= call_mesi.ite32.next call_mesi.ite31.next))
(define-fun .def_1134 () Bool (or param_etat_me1.next .def_1133))
(define-fun .def_1129 () Bool (= call_mesi.ite25.next call_mesi.ite32.next))
(define-fun .def_1112 () Bool (not param_etat_me1.next))
(define-fun .def_1130 () Bool (or .def_1112 .def_1129))
(define-fun .def_1126 () Bool (= call_mesi.ite24.next call_mesi.ite23.next))
(define-fun .def_1127 () Bool (or param_etat_me1.next .def_1126))
(define-fun .def_1122 () Bool (= call_mesi.ite17.next call_mesi.ite24.next))
(define-fun .def_1123 () Bool (or .def_1112 .def_1122))
(define-fun .def_1119 () Bool (= call_mesi.ite16.next call_mesi.ite15.next))
(define-fun .def_1120 () Bool (or param_etat_me1.next .def_1119))
(define-fun .def_1115 () Bool (= call_mesi.ite9.next call_mesi.ite16.next))
(define-fun .def_1116 () Bool (or .def_1112 .def_1115))
(define-fun .def_1111 () Bool (= call_mesi.ite.next call_mesi.ite8.next))
(define-fun .def_1113 () Bool (or .def_1111 .def_1112))
(define-fun .def_1108 () Bool (= call_mesi.ite8.next call_mesi.ite7.next))
(define-fun .def_1110 () Bool (or .def_1108 param_etat_me1.next))
(define-fun .def_1114 () Bool (and .def_1110 .def_1113))
(define-fun .def_1117 () Bool (and .def_1114 .def_1116))
(define-fun .def_1121 () Bool (and .def_1117 .def_1120))
(define-fun .def_1124 () Bool (and .def_1121 .def_1123))
(define-fun .def_1128 () Bool (and .def_1124 .def_1127))
(define-fun .def_1131 () Bool (and .def_1128 .def_1130))
(define-fun .def_1135 () Bool (and .def_1131 .def_1134))
(define-fun .def_1105 () Bool (= env.next call_Sofar.Sofar.next))
(define-fun .def_1102 () Bool (= invalid_me.next call_mesi.invalid_me.next))
(define-fun .def_1099 () Bool (= shared_me.next call_mesi.shared_me.next))
(define-fun .def_1096 () Bool (= exclusive_me.next call_mesi.exclusive_me.next))
(define-fun .def_1093 () Bool (= modified_me.next call_mesi.modified_me.next))
(define-fun .def_1088 () Bool (= call_mesi.ite29.next call_mesi.ite30.next))
(define-fun .def_1089 () Bool (or param_etat_me3.next .def_1088))
(define-fun .def_1085 () Bool (= call_mesi.ite27.next call_mesi.ite30.next))
(define-fun .def_1067 () Bool (not param_etat_me3.next))
(define-fun .def_1086 () Bool (or .def_1067 .def_1085))
(define-fun .def_1081 () Bool (= call_mesi.ite21.next call_mesi.ite22.next))
(define-fun .def_1082 () Bool (or param_etat_me3.next .def_1081))
(define-fun .def_1078 () Bool (= call_mesi.ite19.next call_mesi.ite22.next))
(define-fun .def_1079 () Bool (or .def_1067 .def_1078))
(define-fun .def_1074 () Bool (= call_mesi.ite13.next call_mesi.ite14.next))
(define-fun .def_1075 () Bool (or param_etat_me3.next .def_1074))
(define-fun .def_1071 () Bool (= call_mesi.ite11.next call_mesi.ite14.next))
(define-fun .def_1072 () Bool (or .def_1067 .def_1071))
(define-fun .def_1066 () Bool (= call_mesi.ite3.next call_mesi.ite6.next))
(define-fun .def_1068 () Bool (or .def_1066 .def_1067))
(define-fun .def_1063 () Bool (= call_mesi.ite5.next call_mesi.ite6.next))
(define-fun .def_1065 () Bool (or .def_1063 param_etat_me3.next))
(define-fun .def_1069 () Bool (and .def_1065 .def_1068))
(define-fun .def_1073 () Bool (and .def_1069 .def_1072))
(define-fun .def_1076 () Bool (and .def_1073 .def_1075))
(define-fun .def_1080 () Bool (and .def_1076 .def_1079))
(define-fun .def_1083 () Bool (and .def_1080 .def_1082))
(define-fun .def_1087 () Bool (and .def_1083 .def_1086))
(define-fun .def_1090 () Bool (and .def_1087 .def_1089))
(define-fun .def_1059 () Bool (not env.next))
(define-fun .def_1060 () Bool (or flby.next .def_1059))
(define-fun .def_1061 () Bool (= _OK_.next .def_1060))
(define-fun .def_1091 () Bool (and .def_1061 .def_1090))
(define-fun .def_1094 () Bool (and .def_1091 .def_1093))
(define-fun .def_1097 () Bool (and .def_1094 .def_1096))
(define-fun .def_1100 () Bool (and .def_1097 .def_1099))
(define-fun .def_1103 () Bool (and .def_1100 .def_1102))
(define-fun .def_1106 () Bool (and .def_1103 .def_1105))
(define-fun .def_1136 () Bool (and .def_1106 .def_1135))
(define-fun .def_1162 () Bool (and .def_1136 .def_1161))
(define-fun .def_1164 () Bool (and .def_1162 .def_1163))
(define-fun .def_1166 () Bool (and .def_1164 .def_1165))
(define-fun .def_1168 () Bool (and .def_1166 .def_1167))
(define-fun .def_1170 () Bool (and .def_1168 .def_1169))
(define-fun .def_1184 () Bool (and .def_1170 .def_1183))
(define-fun .def_1186 () Bool (and .def_1184 .def_1185))
(define-fun .def_818 () Bool (= call_Sofar.flby call_Sofar.Sofar))
(define-fun .def_813 () Bool (and param_etat_me4 param_etat_me3))
(define-fun .def_808 () Bool (and param_etat_me1 param_etat_me2))
(define-fun .def_807 () Bool (and param_etat_me3 param_etat_me1))
(define-fun .def_809 () Bool (or .def_807 .def_808))
(define-fun .def_806 () Bool (and param_etat_me4 param_etat_me1))
(define-fun .def_810 () Bool (or .def_806 .def_809))
(define-fun .def_805 () Bool (and param_etat_me3 param_etat_me2))
(define-fun .def_811 () Bool (or .def_805 .def_810))
(define-fun .def_804 () Bool (and param_etat_me4 param_etat_me2))
(define-fun .def_812 () Bool (or .def_804 .def_811))
(define-fun .def_814 () Bool (or .def_812 .def_813))
(define-fun .def_815 () Bool (not .def_814))
(define-fun .def_816 () Bool (= call_excludes4.excludes .def_815))
(define-fun .def_802 () Bool (= call_mesi.flby4 call_mesi.invalid_me))
(define-fun .def_800 () Bool (= call_mesi.flby3 call_mesi.shared_me))
(define-fun .def_798 () Bool (= call_mesi.flby2 call_mesi.exclusive_me))
(define-fun .def_796 () Bool (= call_mesi.flby call_mesi.modified_me))
(define-fun .def_792 () Bool (= call_mesi.ite30 call_mesi.ite31))
(define-fun .def_793 () Bool (or param_etat_me2 .def_792))
(define-fun .def_789 () Bool (= call_mesi.ite31 call_mesi.ite26))
(define-fun .def_771 () Bool (not param_etat_me2))
(define-fun .def_790 () Bool (or .def_771 .def_789))
(define-fun .def_785 () Bool (= call_mesi.ite22 call_mesi.ite23))
(define-fun .def_786 () Bool (or param_etat_me2 .def_785))
(define-fun .def_782 () Bool (= call_mesi.ite23 call_mesi.ite18))
(define-fun .def_783 () Bool (or .def_771 .def_782))
(define-fun .def_778 () Bool (= call_mesi.ite14 call_mesi.ite15))
(define-fun .def_779 () Bool (or param_etat_me2 .def_778))
(define-fun .def_775 () Bool (= call_mesi.ite15 call_mesi.ite10))
(define-fun .def_776 () Bool (or .def_771 .def_775))
(define-fun .def_770 () Bool (= call_mesi.ite7 call_mesi.ite2))
(define-fun .def_772 () Bool (or .def_770 .def_771))
(define-fun .def_766 () Bool (= call_mesi.ite6 call_mesi.ite7))
(define-fun .def_768 () Bool (or .def_766 param_etat_me2))
(define-fun .def_773 () Bool (and .def_768 .def_772))
(define-fun .def_777 () Bool (and .def_773 .def_776))
(define-fun .def_780 () Bool (and .def_777 .def_779))
(define-fun .def_784 () Bool (and .def_780 .def_783))
(define-fun .def_787 () Bool (and .def_784 .def_786))
(define-fun .def_791 () Bool (and .def_787 .def_790))
(define-fun .def_794 () Bool (and .def_791 .def_793))
(define-fun .def_762 () Bool (= call_mesi.ite32 call_mesi.ite31))
(define-fun .def_763 () Bool (or param_etat_me1 .def_762))
(define-fun .def_758 () Bool (= call_mesi.ite25 call_mesi.ite32))
(define-fun .def_736 () Bool (not param_etat_me1))
(define-fun .def_759 () Bool (or .def_736 .def_758))
(define-fun .def_753 () Bool (= call_mesi.ite24 call_mesi.ite23))
(define-fun .def_754 () Bool (or param_etat_me1 .def_753))
(define-fun .def_749 () Bool (= call_mesi.ite17 call_mesi.ite24))
(define-fun .def_750 () Bool (or .def_736 .def_749))
(define-fun .def_744 () Bool (= call_mesi.ite16 call_mesi.ite15))
(define-fun .def_745 () Bool (or param_etat_me1 .def_744))
(define-fun .def_740 () Bool (= call_mesi.ite9 call_mesi.ite16))
(define-fun .def_741 () Bool (or .def_736 .def_740))
(define-fun .def_735 () Bool (= call_mesi.ite call_mesi.ite8))
(define-fun .def_737 () Bool (or .def_735 .def_736))
(define-fun .def_732 () Bool (= call_mesi.ite8 call_mesi.ite7))
(define-fun .def_734 () Bool (or .def_732 param_etat_me1))
(define-fun .def_738 () Bool (and .def_734 .def_737))
(define-fun .def_742 () Bool (and .def_738 .def_741))
(define-fun .def_746 () Bool (and .def_742 .def_745))
(define-fun .def_751 () Bool (and .def_746 .def_750))
(define-fun .def_755 () Bool (and .def_751 .def_754))
(define-fun .def_760 () Bool (and .def_755 .def_759))
(define-fun .def_764 () Bool (and .def_760 .def_763))
(define-fun .def_728 () Bool (= env call_Sofar.Sofar))
(define-fun .def_725 () Bool (= invalid_me call_mesi.invalid_me))
(define-fun .def_721 () Bool (= shared_me call_mesi.shared_me))
(define-fun .def_717 () Bool (= exclusive_me call_mesi.exclusive_me))
(define-fun .def_713 () Bool (= modified_me call_mesi.modified_me))
(define-fun .def_707 () Bool (= call_mesi.ite29 call_mesi.ite30))
(define-fun .def_708 () Bool (or param_etat_me3 .def_707))
(define-fun .def_704 () Bool (= call_mesi.ite27 call_mesi.ite30))
(define-fun .def_685 () Bool (not param_etat_me3))
(define-fun .def_705 () Bool (or .def_685 .def_704))
(define-fun .def_699 () Bool (= call_mesi.ite21 call_mesi.ite22))
(define-fun .def_700 () Bool (or param_etat_me3 .def_699))
(define-fun .def_696 () Bool (= call_mesi.ite19 call_mesi.ite22))
(define-fun .def_697 () Bool (or .def_685 .def_696))
(define-fun .def_692 () Bool (= call_mesi.ite13 call_mesi.ite14))
(define-fun .def_693 () Bool (or param_etat_me3 .def_692))
(define-fun .def_689 () Bool (= call_mesi.ite11 call_mesi.ite14))
(define-fun .def_690 () Bool (or .def_685 .def_689))
(define-fun .def_684 () Bool (= call_mesi.ite3 call_mesi.ite6))
(define-fun .def_686 () Bool (or .def_684 .def_685))
(define-fun .def_681 () Bool (= call_mesi.ite5 call_mesi.ite6))
(define-fun .def_683 () Bool (or .def_681 param_etat_me3))
(define-fun .def_687 () Bool (and .def_683 .def_686))
(define-fun .def_691 () Bool (and .def_687 .def_690))
(define-fun .def_694 () Bool (and .def_691 .def_693))
(define-fun .def_698 () Bool (and .def_694 .def_697))
(define-fun .def_701 () Bool (and .def_698 .def_700))
(define-fun .def_706 () Bool (and .def_701 .def_705))
(define-fun .def_709 () Bool (and .def_706 .def_708))
(define-fun .def_677 () Bool (not env))
(define-fun .def_678 () Bool (or flby .def_677))
(define-fun .def_679 () Bool (= _OK_ .def_678))
(define-fun .def_710 () Bool (and .def_679 .def_709))
(define-fun .def_714 () Bool (and .def_710 .def_713))
(define-fun .def_718 () Bool (and .def_714 .def_717))
(define-fun .def_722 () Bool (and .def_718 .def_721))
(define-fun .def_726 () Bool (and .def_722 .def_725))
(define-fun .def_729 () Bool (and .def_726 .def_728))
(define-fun .def_765 () Bool (and .def_729 .def_764))
(define-fun .def_795 () Bool (and .def_765 .def_794))
(define-fun .def_797 () Bool (and .def_795 .def_796))
(define-fun .def_799 () Bool (and .def_797 .def_798))
(define-fun .def_801 () Bool (and .def_799 .def_800))
(define-fun .def_803 () Bool (and .def_801 .def_802))
(define-fun .def_817 () Bool (and .def_803 .def_816))
(define-fun .def_819 () Bool (and .def_817 .def_818))
(define-fun .def_1187 () Bool (and .def_819 .def_1186))
(define-fun .def_1053 () Bool (and call_Sofar.Sofar call_excludes4.excludes.next))
(define-fun .def_1055 () Bool (= .def_1053 call_Sofar.flby.next))
(define-fun .def_1050 () Bool (= call_mesi.ite32.next call_mesi.flby4.next))
(define-fun .def_1046 () Bool (= call_mesi.ite24.next call_mesi.flby3.next))
(define-fun .def_1042 () Bool (= call_mesi.ite16.next call_mesi.flby2.next))
(define-fun .def_1038 () Bool (= call_mesi.ite8.next call_mesi.flby.next))
(define-fun .def_1006 () Bool (<= 1 call_mesi.invalid_me))
(define-fun .def_1033 () Bool (= call_mesi.garde_me4.next .def_1006))
(define-fun .def_1030 () Bool (= call_mesi.ite20.next 0))
(define-fun .def_940 () Bool (not call_mesi.garde_me4.next))
(define-fun .def_1031 () Bool (or .def_940 .def_1030))
(define-fun .def_1027 () Bool (= call_mesi.ite4.next 0))
(define-fun .def_1028 () Bool (or .def_940 .def_1027))
(define-fun .def_1025 () Bool (= call_mesi.ite12.next 1))
(define-fun .def_1026 () Bool (or .def_940 .def_1025))
(define-fun .def_1029 () Bool (and .def_1026 .def_1028))
(define-fun .def_1032 () Bool (and .def_1029 .def_1031))
(define-fun .def_1034 () Bool (and .def_1032 .def_1033))
(define-fun .def_1021 () Bool (<= 1 call_mesi.shared_me))
(define-fun .def_1022 () Bool (= call_mesi.garde_me3.next .def_1021))
(define-fun .def_1018 () Bool (= call_mesi.ite19.next 0))
(define-fun .def_927 () Bool (not call_mesi.garde_me3.next))
(define-fun .def_1019 () Bool (or .def_927 .def_1018))
(define-fun .def_1015 () Bool (= call_mesi.ite3.next 0))
(define-fun .def_1016 () Bool (or .def_927 .def_1015))
(define-fun .def_1013 () Bool (= call_mesi.ite11.next 1))
(define-fun .def_1014 () Bool (or .def_927 .def_1013))
(define-fun .def_1017 () Bool (and .def_1014 .def_1016))
(define-fun .def_1020 () Bool (and .def_1017 .def_1019))
(define-fun .def_1023 () Bool (and .def_1020 .def_1022))
(define-fun .def_1010 () Bool (<= 1 call_mesi.exclusive_me))
(define-fun .def_1011 () Bool (= call_mesi.garde_me2.next .def_1010))
(define-fun .def_1007 () Bool (= call_mesi.garde_me1.next .def_1006))
(define-fun .def_1003 () Bool (= call_mesi.ite.next 0))
(define-fun .def_913 () Bool (not call_mesi.garde_me1.next))
(define-fun .def_1004 () Bool (or .def_913 .def_1003))
(define-fun .def_1001 () Bool (= call_mesi.ite9.next 0))
(define-fun .def_1002 () Bool (or .def_913 .def_1001))
(define-fun .def_1005 () Bool (and .def_1002 .def_1004))
(define-fun .def_1008 () Bool (and .def_1005 .def_1007))
(define-fun .def_997 () Bool (= call_mesi.invalid_me call_mesi.ite28.next))
(define-fun .def_998 () Bool (or call_mesi.garde_me4.next .def_997))
(define-fun .def_994 () Bool (= call_mesi.invalid_me call_mesi.ite27.next))
(define-fun .def_995 () Bool (or call_mesi.garde_me3.next .def_994))
(define-fun .def_989 () Bool (= call_mesi.invalid_me call_mesi.ite26.next))
(define-fun .def_992 () Bool (or call_mesi.garde_me2.next .def_989))
(define-fun .def_885 () Bool (not call_mesi.garde_me2.next))
(define-fun .def_990 () Bool (or .def_885 .def_989))
(define-fun .def_983 () Int (* (- 1) call_mesi.ite25.next))
(define-fun .def_984 () Int (+ call_mesi.invalid_me .def_983))
(define-fun .def_985 () Bool (= .def_984 1))
(define-fun .def_986 () Bool (or .def_913 .def_985))
(define-fun .def_981 () Bool (= call_mesi.invalid_me call_mesi.ite25.next))
(define-fun .def_982 () Bool (or call_mesi.garde_me1.next .def_981))
(define-fun .def_987 () Bool (and .def_982 .def_986))
(define-fun .def_991 () Bool (and .def_987 .def_990))
(define-fun .def_993 () Bool (and .def_991 .def_992))
(define-fun .def_996 () Bool (and .def_993 .def_995))
(define-fun .def_999 () Bool (and .def_996 .def_998))
(define-fun .def_976 () Bool (= call_mesi.shared_me call_mesi.ite20.next))
(define-fun .def_977 () Bool (or call_mesi.garde_me4.next .def_976))
(define-fun .def_973 () Bool (= call_mesi.shared_me call_mesi.ite19.next))
(define-fun .def_974 () Bool (or call_mesi.garde_me3.next .def_973))
(define-fun .def_965 () Bool (= call_mesi.shared_me call_mesi.ite18.next))
(define-fun .def_970 () Bool (or call_mesi.garde_me2.next .def_965))
(define-fun .def_967 () Bool (= call_mesi.shared_me call_mesi.ite17.next))
(define-fun .def_968 () Bool (or call_mesi.garde_me1.next .def_967))
(define-fun .def_966 () Bool (or .def_885 .def_965))
(define-fun .def_969 () Bool (and .def_966 .def_968))
(define-fun .def_971 () Bool (and .def_969 .def_970))
(define-fun .def_975 () Bool (and .def_971 .def_974))
(define-fun .def_978 () Bool (and .def_975 .def_977))
(define-fun .def_960 () Bool (= call_mesi.exclusive_me call_mesi.ite12.next))
(define-fun .def_961 () Bool (or call_mesi.garde_me4.next .def_960))
(define-fun .def_957 () Bool (= call_mesi.exclusive_me call_mesi.ite11.next))
(define-fun .def_958 () Bool (or call_mesi.garde_me3.next .def_957))
(define-fun .def_953 () Bool (= call_mesi.exclusive_me call_mesi.ite10.next))
(define-fun .def_954 () Bool (or call_mesi.garde_me2.next .def_953))
(define-fun .def_950 () Bool (= call_mesi.exclusive_me call_mesi.ite9.next))
(define-fun .def_951 () Bool (or call_mesi.garde_me1.next .def_950))
(define-fun .def_945 () Int (* (- 1) call_mesi.ite10.next))
(define-fun .def_946 () Int (+ call_mesi.exclusive_me .def_945))
(define-fun .def_947 () Bool (= .def_946 1))
(define-fun .def_948 () Bool (or .def_885 .def_947))
(define-fun .def_952 () Bool (and .def_948 .def_951))
(define-fun .def_955 () Bool (and .def_952 .def_954))
(define-fun .def_959 () Bool (and .def_955 .def_958))
(define-fun .def_962 () Bool (and .def_959 .def_961))
(define-fun .def_930 () Int (* (- 1) call_mesi.ite28.next))
(define-fun .def_935 () Int (+ call_mesi.invalid_me .def_930))
(define-fun .def_936 () Int (+ call_mesi.shared_me .def_935))
(define-fun .def_937 () Int (+ call_mesi.exclusive_me .def_936))
(define-fun .def_938 () Int (+ call_mesi.modified_me .def_937))
(define-fun .def_939 () Bool (= .def_938 1))
(define-fun .def_941 () Bool (or .def_939 .def_940))
(define-fun .def_917 () Int (* (- 1) call_mesi.ite27.next))
(define-fun .def_922 () Int (+ call_mesi.invalid_me .def_917))
(define-fun .def_923 () Int (+ call_mesi.shared_me .def_922))
(define-fun .def_924 () Int (+ call_mesi.exclusive_me .def_923))
(define-fun .def_925 () Int (+ call_mesi.modified_me .def_924))
(define-fun .def_926 () Bool (= .def_925 1))
(define-fun .def_928 () Bool (or .def_926 .def_927))
(define-fun .def_905 () Int (* (- 1) call_mesi.ite17.next))
(define-fun .def_909 () Int (+ call_mesi.shared_me .def_905))
(define-fun .def_910 () Int (+ call_mesi.exclusive_me .def_909))
(define-fun .def_911 () Int (+ call_mesi.modified_me .def_910))
(define-fun .def_912 () Bool (= .def_911 0))
(define-fun .def_914 () Bool (or .def_912 .def_913))
(define-fun .def_900 () Bool (= call_mesi.modified_me call_mesi.ite4.next))
(define-fun .def_902 () Bool (or .def_900 call_mesi.garde_me4.next))
(define-fun .def_896 () Bool (= call_mesi.modified_me call_mesi.ite3.next))
(define-fun .def_898 () Bool (or .def_896 call_mesi.garde_me3.next))
(define-fun .def_892 () Bool (= call_mesi.modified_me call_mesi.ite2.next))
(define-fun .def_893 () Bool (or call_mesi.garde_me2.next .def_892))
(define-fun .def_888 () Bool (= call_mesi.modified_me call_mesi.ite.next))
(define-fun .def_890 () Bool (or .def_888 call_mesi.garde_me1.next))
(define-fun .def_881 () Int (* (- 1) call_mesi.ite2.next))
(define-fun .def_882 () Int (+ call_mesi.modified_me .def_881))
(define-fun .def_883 () Bool (= .def_882 1))
(define-fun .def_886 () Bool (or .def_883 .def_885))
(define-fun .def_891 () Bool (and .def_886 .def_890))
(define-fun .def_894 () Bool (and .def_891 .def_893))
(define-fun .def_899 () Bool (and .def_894 .def_898))
(define-fun .def_903 () Bool (and .def_899 .def_902))
(define-fun .def_915 () Bool (and .def_903 .def_914))
(define-fun .def_929 () Bool (and .def_915 .def_928))
(define-fun .def_942 () Bool (and .def_929 .def_941))
(define-fun .def_876 () Bool (= call_mesi.invalid_me call_mesi.ite29.next))
(define-fun .def_877 () Bool (or param_etat_me4.next .def_876))
(define-fun .def_873 () Bool (= call_mesi.ite28.next call_mesi.ite29.next))
(define-fun .def_852 () Bool (not param_etat_me4.next))
(define-fun .def_874 () Bool (or .def_852 .def_873))
(define-fun .def_868 () Bool (= call_mesi.shared_me call_mesi.ite21.next))
(define-fun .def_869 () Bool (or param_etat_me4.next .def_868))
(define-fun .def_865 () Bool (= call_mesi.ite20.next call_mesi.ite21.next))
(define-fun .def_866 () Bool (or .def_852 .def_865))
(define-fun .def_860 () Bool (= call_mesi.exclusive_me call_mesi.ite13.next))
(define-fun .def_861 () Bool (or param_etat_me4.next .def_860))
(define-fun .def_857 () Bool (= call_mesi.ite12.next call_mesi.ite13.next))
(define-fun .def_858 () Bool (or .def_852 .def_857))
(define-fun .def_851 () Bool (= call_mesi.ite5.next call_mesi.ite4.next))
(define-fun .def_853 () Bool (or .def_851 .def_852))
(define-fun .def_847 () Bool (= call_mesi.modified_me call_mesi.ite5.next))
(define-fun .def_849 () Bool (or .def_847 param_etat_me4.next))
(define-fun .def_854 () Bool (and .def_849 .def_853))
(define-fun .def_859 () Bool (and .def_854 .def_858))
(define-fun .def_862 () Bool (and .def_859 .def_861))
(define-fun .def_867 () Bool (and .def_862 .def_866))
(define-fun .def_870 () Bool (and .def_867 .def_869))
(define-fun .def_875 () Bool (and .def_870 .def_874))
(define-fun .def_878 () Bool (and .def_875 .def_877))
(define-fun .def_830 () Int (* (- 1) invalid_me.next))
(define-fun .def_827 () Int (* (- 1) shared_me.next))
(define-fun .def_836 () Int (+ .def_827 .def_830))
(define-fun .def_824 () Int (* (- 1) exclusive_me.next))
(define-fun .def_837 () Int (+ .def_824 .def_836))
(define-fun .def_822 () Int (* (- 1) modified_me.next))
(define-fun .def_838 () Int (+ .def_822 .def_837))
(define-fun .def_839 () Int (+ invalid_me .def_838))
(define-fun .def_840 () Int (+ shared_me .def_839))
(define-fun .def_841 () Int (+ exclusive_me .def_840))
(define-fun .def_842 () Int (+ modified_me .def_841))
(define-fun .def_843 () Bool (= .def_842 0))
(define-fun .def_845 () Bool (= .def_843 flby.next))
(define-fun .def_879 () Bool (and .def_845 .def_878))
(define-fun .def_943 () Bool (and .def_879 .def_942))
(define-fun .def_963 () Bool (and .def_943 .def_962))
(define-fun .def_979 () Bool (and .def_963 .def_978))
(define-fun .def_1000 () Bool (and .def_979 .def_999))
(define-fun .def_1009 () Bool (and .def_1000 .def_1008))
(define-fun .def_1012 () Bool (and .def_1009 .def_1011))
(define-fun .def_1024 () Bool (and .def_1012 .def_1023))
(define-fun .def_1035 () Bool (and .def_1024 .def_1034))
(define-fun .def_1039 () Bool (and .def_1035 .def_1038))
(define-fun .def_1043 () Bool (and .def_1039 .def_1042))
(define-fun .def_1047 () Bool (and .def_1043 .def_1046))
(define-fun .def_1051 () Bool (and .def_1047 .def_1050))
(define-fun .def_1056 () Bool (and .def_1051 .def_1055))
(define-fun .def_1188 () Bool (and .def_1056 .def_1187))
(assert .def_1188)
